# Solution for model r3_t18_m1_0 Batch Number: 3
# Finished Task: 18 / 18
# Makespan: 501.0, Total Distance: 517.0, Total Time: 1.1108
# R O S F Batch
0 0 17 0.0 0.0 -1
1 1 12 0.0 0.0 -1
2 2 3 0.0 0.0 -1
3 2 14 74.0 97.0 0
4 0 18 277.0 313.0 0
5 2 -1 470.0 501.0 2
6 1 13 325.0 360.0 0
7 2 15 393.0 429.0 2
8 1 6 281.0 316.0 0
9 2 7 351.0 373.0 1
10 2 9 295.0 324.0 0
11 0 4 232.0 265.0 0
12 1 8 89.0 115.0 0
13 1 16 387.0 426.0 2
14 2 19 151.0 185.0 0
15 2 5 438.0 459.0 2
16 1 -1 462.0 483.0 2
17 0 20 97.0 117.0 0
18 0 -1 326.0 360.0 0
19 2 10 267.0 295.0 0
20 0 11 169.0 203.0 0
